
List of user-set options:

                                    Name   Value                used
                linear_scaling_on_demand = no                    yes
                           linear_solver = ma86                  yes
                   linear_system_scaling = mc19                  yes
                                max_iter = 500                   yes
                                 mu_init = 1e-06                 yes
                             output_file = ./tmp/ipopt_output_tmp.output  yes
                      print_user_options = yes                   yes
                   warm_start_bound_push = 1e-20                 yes
                   warm_start_init_point = yes                   yes
              warm_start_mult_bound_push = 1e-20                 yes

******************************************************************************
This program contains Ipopt, a library for large-scale nonlinear optimization.
 Ipopt is released as open source code under the Eclipse Public License (EPL).
         For more information visit http://projects.coin-or.org/Ipopt
******************************************************************************

This is Ipopt version 3.12.8, running with linear solver ma86.

Number of nonzeros in equality constraint Jacobian...:     2968
Number of nonzeros in inequality constraint Jacobian.:        5
Number of nonzeros in Lagrangian Hessian.............:     4237

Total number of variables............................:      960
                     variables with only lower bounds:      325
                variables with lower and upper bounds:      627
                     variables with only upper bounds:        0
Total number of equality constraints.................:      957
Total number of inequality constraints...............:        1
        inequality constraints with only lower bounds:        0
   inequality constraints with lower and upper bounds:        0
        inequality constraints with only upper bounds:        1

iter    objective    inf_pr   inf_du lg(mu)  ||d||  lg(rg) alpha_du alpha_pr  ls
   0 -4.7315000e+02 6.17e+02 1.97e-09  -6.0 0.00e+00    -  0.00e+00 0.00e+00   0
   1 -4.7315000e+02 9.73e+00 1.64e+00  -6.0 6.17e+02    -  1.00e+00 9.84e-01h  1
   2 -4.7315000e+02 2.85e+00 5.12e+05  -6.0 9.73e+00    -  1.00e+00 7.07e-01h  1
   3 -4.7315000e+02 1.08e-05 7.25e+05  -6.0 2.85e+00    -  7.07e-01 1.00e+00h  1
   4 -4.7315000e+02 9.34e-06 2.31e+05  -6.0 2.80e-02    -  1.00e+00 6.81e-01h  1
   5 -4.7315000e+02 3.85e-06 1.40e+05  -6.0 3.99e-02    -  1.00e+00 3.96e-01f  2
   6 -4.7315000e+02 1.48e-07 1.58e-02  -6.0 1.58e-02    -  1.00e+00 1.00e+00h  1
   7 -4.7315000e+02 1.12e-08 1.37e-03  -6.0 4.33e-03    -  1.00e+00 1.00e+00h  1
   8 -4.7315000e+02 1.39e-10 5.38e-05  -6.0 4.82e-04    -  1.00e+00 1.00e+00h  1
   9 -4.7315000e+02 1.14e-13 1.55e-08  -6.0 4.94e-06    -  1.00e+00 1.00e+00h  1
iter    objective    inf_pr   inf_du lg(mu)  ||d||  lg(rg) alpha_du alpha_pr  ls
  10 -4.7315000e+02 2.88e-07 1.84e+00  -9.0 1.31e-02    -  1.00e+00 9.81e-01f  1
  11 -4.7315000e+02 4.13e-08 2.28e-03  -9.0 5.12e-03    -  1.00e+00 1.00e+00h  1
  12 -4.7315000e+02 4.30e-09 6.53e-01  -9.0 1.61e-03    -  1.00e+00 8.17e-01h  1
  13 -4.7315000e+02 2.46e-10 3.53e-04  -9.0 6.42e-04    -  1.00e+00 1.00e+00f  1
  14 -4.7315000e+02 9.79e-10 5.98e-05  -9.0 1.28e-03    -  1.00e+00 1.00e+00h  1
  15 -4.7315000e+02 5.82e-10 6.80e-06  -9.0 9.88e-04    -  1.00e+00 1.00e+00h  1
  16 -4.7315000e+02 2.16e-12 7.98e-08  -9.0 6.01e-05    -  1.00e+00 1.00e+00h  1
  17 -4.7315000e+02 1.42e-13 5.83e-11  -9.0 1.77e-06    -  1.00e+00 1.00e+00h  1

Number of Iterations....: 17

                                   (scaled)                 (unscaled)
Objective...............:  -4.7315000000896936e+02   -4.7315000000896936e+02
Dual infeasibility......:   5.8339402427866338e-11    5.8339402427866338e-11
Constraint violation....:   1.1368683772161603e-13    1.4210854715202004e-13
Complementarity.........:   1.0000001448345767e-09    1.0000001448345767e-09
Overall NLP error.......:   1.0000001448345767e-09    1.0000001448345767e-09


Number of objective function evaluations             = 19
Number of objective gradient evaluations             = 18
Number of equality constraint evaluations            = 19
Number of inequality constraint evaluations          = 19
Number of equality constraint Jacobian evaluations   = 18
Number of inequality constraint Jacobian evaluations = 18
Number of Lagrangian Hessian evaluations             = 17
Total CPU secs in IPOPT (w/o function evaluations)   =      0.576
Total CPU secs in NLP function evaluations           =      0.038

EXIT: Optimal Solution Found.
